; DUP1 PUSH cw_1 ADD SWAP1 POP => PUSH cw_1 ADD
(set-option :produce-proofs true)
; 
(set-info :status unknown)
(declare-fun storage_t ((_ BitVec 256) (_ BitVec 256) Int (_ BitVec 256)) (_ BitVec 256))
(declare-fun w_1 () (_ BitVec 256))
(declare-fun storage_s ((_ BitVec 256) (_ BitVec 256) Int (_ BitVec 256)) (_ BitVec 256))
(declare-fun exc_halt_t (Int) Bool)
(declare-fun exc_halt_s (Int) Bool)
(declare-fun stack_t ((_ BitVec 256) (_ BitVec 256) Int (_ BitVec 6)) (_ BitVec 256))
(declare-fun stack_s ((_ BitVec 256) (_ BitVec 256) Int (_ BitVec 6)) (_ BitVec 256))
(declare-fun sc_t (Int) (_ BitVec 6))
(declare-fun sc_s (Int) (_ BitVec 6))
(declare-fun used_gas_t ((_ BitVec 256) (_ BitVec 256) Int) Int)
(declare-fun used_gas_s ((_ BitVec 256) (_ BitVec 256) Int) Int)
(assert
 (exists ((x_0 (_ BitVec 256)) )(let (($x8842 (forall ((w (_ BitVec 256)) )(let ((?x877 (storage_t x_0 w_1 2 w)))
 (let ((?x7039 (storage_s x_0 w_1 5 w)))
 (= ?x7039 ?x877))))
 ))
 (let (($x5252 (exc_halt_t 2)))
 (let (($x11317 (exc_halt_s 5)))
 (let (($x6936 (= $x11317 $x5252)))
 (let (($x10523 (forall ((n (_ BitVec 6)) )(let ((?x6429 (stack_t x_0 w_1 2 n)))
 (let ((?x2704 (stack_s x_0 w_1 5 n)))
 (let (($x8086 (= ?x2704 ?x6429)))
 (let ((?x2714 (sc_t 2)))
 (let (($x169 (bvsle ?x2714 n)))
 (or $x169 $x8086)))))))
 ))
 (let ((?x2714 (sc_t 2)))
 (let ((?x4319 (sc_s 5)))
 (let (($x6794 (= ?x4319 ?x2714)))
 (let ((?x2801 (used_gas_t x_0 w_1 0)))
 (let ((?x5968 (used_gas_s x_0 w_1 0)))
 (let (($x9028 (= ?x5968 ?x2801)))
 (let (($x10163 (forall ((w (_ BitVec 256)) )(let ((?x10276 (storage_t x_0 w_1 0 w)))
 (let ((?x7723 (storage_s x_0 w_1 0 w)))
 (= ?x7723 ?x10276))))
 ))
 (let (($x56 (exc_halt_t 0)))
 (let (($x57 (exc_halt_s 0)))
 (let (($x58 (= $x57 $x56)))
 (let (($x3478 (forall ((n (_ BitVec 6)) )(let ((?x63 (sc_t 0)))
 (let (($x11783 (bvsle ?x63 n)))
 (let ((?x6522 (stack_t x_0 w_1 0 n)))
 (let ((?x8988 (stack_s x_0 w_1 0 n)))
 (let (($x6195 (= ?x8988 ?x6522)))
 (or $x6195 $x11783)))))))
 ))
 (let ((?x63 (sc_t 0)))
 (let ((?x72 (sc_s 0)))
 (let (($x73 (= ?x72 ?x63)))
 (let (($x3822 (= $x5252 (or (exc_halt_t 1) (not (bvsle (_ bv0 6) (bvadd (_ bv62 6) (sc_t 1))))))))
 (let (($x7073 (forall ((w (_ BitVec 256)) )(let ((?x5217 (storage_t x_0 w_1 1 w)))
 (let ((?x877 (storage_t x_0 w_1 2 w)))
 (= ?x877 ?x5217))))
 ))
 (let (($x10308 (forall ((n (_ BitVec 6)) )(let ((?x4127 (stack_t x_0 w_1 1 n)))
 (let ((?x6429 (stack_t x_0 w_1 2 n)))
 (let (($x9744 (= ?x6429 ?x4127)))
 (let ((?x8347 (sc_t 1)))
 (let ((?x11637 (bvadd (_ bv62 6) ?x8347)))
 (let (($x8762 (bvsle ?x11637 n)))
 (or $x8762 $x9744))))))))
 ))
 (let ((?x8347 (sc_t 1)))
 (let ((?x9704 (bvadd (_ bv63 6) ?x8347)))
 (let (($x7451 (= ?x2714 ?x9704)))
 (let ((?x2229 (used_gas_t x_0 w_1 2)))
 (let (($x7652 (= ?x2229 (+ 3 (used_gas_t x_0 w_1 1)))))
 (let ((?x6423 (stack_t x_0 w_1 1 ?x9704)))
 (let ((?x3328 (bvadd (_ bv63 6) ?x2714)))
 (let ((?x7609 (stack_t x_0 w_1 2 ?x3328)))
 (let (($x3508 (exc_halt_t 1)))
 (let (($x5562 (= $x3508 (or $x56 (not (= ((_ extract 6 6) (bvadd (_ bv1 7) (concat (_ bv0 1) ?x63))) (_ bv0 1)))))))
 (let (($x9611 (forall ((w (_ BitVec 256)) )(let ((?x10276 (storage_t x_0 w_1 0 w)))
 (let ((?x5217 (storage_t x_0 w_1 1 w)))
 (= ?x5217 ?x10276))))
 ))
 (let (($x10423 (forall ((n (_ BitVec 6)) )(let ((?x63 (sc_t 0)))
 (let (($x11783 (bvsle ?x63 n)))
 (let ((?x6522 (stack_t x_0 w_1 0 n)))
 (let ((?x4127 (stack_t x_0 w_1 1 n)))
 (let (($x970 (= ?x4127 ?x6522)))
 (or $x970 $x11783)))))))
 ))
 (let (($x934 (= ?x8347 (bvadd (_ bv1 6) ?x63))))
 (let ((?x10595 (used_gas_t x_0 w_1 1)))
 (let (($x2091 (= ?x10595 (+ 3 ?x2801))))
 (let (($x1632 (= $x11317 (or (exc_halt_s 4) (not (bvsle (_ bv0 6) (bvadd (_ bv63 6) (sc_s 4))))))))
 (let (($x1048 (forall ((w (_ BitVec 256)) )(let ((?x11142 (storage_s x_0 w_1 4 w)))
 (let ((?x7039 (storage_s x_0 w_1 5 w)))
 (= ?x7039 ?x11142))))
 ))
 (let (($x142 (forall ((n (_ BitVec 6)) )(let ((?x4305 (sc_s 4)))
 (let ((?x8501 (bvadd (_ bv63 6) ?x4305)))
 (let (($x8809 (bvsle ?x8501 n)))
 (let ((?x8101 (stack_s x_0 w_1 4 n)))
 (let ((?x2704 (stack_s x_0 w_1 5 n)))
 (let (($x862 (= ?x2704 ?x8101)))
 (or $x862 $x8809))))))))
 ))
 (let ((?x4305 (sc_s 4)))
 (let ((?x8501 (bvadd (_ bv63 6) ?x4305)))
 (let (($x9540 (= ?x4319 ?x8501)))
 (let ((?x6316 (used_gas_s x_0 w_1 5)))
 (let (($x7172 (exc_halt_s 4)))
 (let (($x11446 (= $x7172 (or (exc_halt_s 3) (not (bvsle (_ bv0 6) (bvadd (_ bv62 6) (sc_s 3))))))))
 (let (($x2891 (forall ((w (_ BitVec 256)) )(let ((?x10430 (storage_s x_0 w_1 3 w)))
 (let ((?x11142 (storage_s x_0 w_1 4 w)))
 (= ?x11142 ?x10430))))
 ))
 (let (($x7470 (forall ((n (_ BitVec 6)) )(let ((?x275 (sc_s 3)))
 (let ((?x6164 (bvadd (_ bv62 6) ?x275)))
 (let (($x2616 (bvsle ?x6164 n)))
 (or $x2616 (= (stack_s x_0 w_1 4 n) (stack_s x_0 w_1 3 n)))))))
 ))
 (let ((?x275 (sc_s 3)))
 (let (($x8046 (= ?x4305 ?x275)))
 (let ((?x7031 (used_gas_s x_0 w_1 4)))
 (let (($x3868 (= ?x7031 (+ 3 (used_gas_s x_0 w_1 3)))))
 (let ((?x3294 (bvadd (_ bv63 6) ?x275)))
 (let ((?x2630 (stack_s x_0 w_1 3 ?x3294)))
 (let ((?x4084 (bvadd (_ bv62 6) ?x4305)))
 (let ((?x2806 (stack_s x_0 w_1 4 ?x4084)))
 (let ((?x6164 (bvadd (_ bv62 6) ?x275)))
 (let ((?x10805 (stack_s x_0 w_1 3 ?x6164)))
 (let ((?x1679 (stack_s x_0 w_1 4 ?x8501)))
 (let (($x292 (exc_halt_s 3)))
 (let (($x3345 (= $x292 (or (exc_halt_s 2) (not (bvsle (_ bv0 6) (bvadd (_ bv62 6) (sc_s 2))))))))
 (let (($x871 (forall ((w (_ BitVec 256)) )(let ((?x7921 (storage_s x_0 w_1 2 w)))
 (let ((?x10430 (storage_s x_0 w_1 3 w)))
 (= ?x10430 ?x7921))))
 ))
 (let (($x6984 (forall ((n (_ BitVec 6)) )(let ((?x218 (sc_s 2)))
 (let ((?x798 (bvadd (_ bv62 6) ?x218)))
 (let (($x4109 (bvsle ?x798 n)))
 (let ((?x11835 (stack_s x_0 w_1 2 n)))
 (let ((?x6951 (stack_s x_0 w_1 3 n)))
 (let (($x2842 (= ?x6951 ?x11835)))
 (or $x2842 $x4109))))))))
 ))
 (let ((?x218 (sc_s 2)))
 (let ((?x8348 (bvadd (_ bv63 6) ?x218)))
 (let (($x9977 (= ?x275 ?x8348)))
 (let ((?x10578 (used_gas_s x_0 w_1 3)))
 (let (($x108 (= ?x10578 (+ 3 (used_gas_s x_0 w_1 2)))))
 (let ((?x976 (stack_s x_0 w_1 2 ?x8348)))
 (let (($x8177 (not (= ((_ extract 6 6) (bvadd (_ bv1 7) (concat (_ bv0 1) (sc_s 1)))) (_ bv0 1)))))
 (let (($x189 (exc_halt_s 1)))
 (let (($x247 (exc_halt_s 2)))
 (let (($x7427 (= $x247 (or $x189 $x8177))))
 (let (($x3481 (forall ((w (_ BitVec 256)) )(let ((?x2688 (storage_s x_0 w_1 1 w)))
 (let ((?x7921 (storage_s x_0 w_1 2 w)))
 (= ?x7921 ?x2688))))
 ))
 (let (($x8775 (forall ((n (_ BitVec 6)) )(let ((?x154 (sc_s 1)))
 (let (($x11447 (bvsle ?x154 n)))
 (let ((?x6502 (stack_s x_0 w_1 1 n)))
 (let ((?x11835 (stack_s x_0 w_1 2 n)))
 (let (($x8232 (= ?x11835 ?x6502)))
 (or $x8232 $x11447)))))))
 ))
 (let (($x9548 (= ?x218 (bvadd (_ bv1 6) (sc_s 1)))))
 (let ((?x7467 (used_gas_s x_0 w_1 2)))
 (let (($x2407 (= ?x7467 (+ 3 (used_gas_s x_0 w_1 1)))))
 (let (($x10446 (not (= ((_ extract 6 6) (bvadd (_ bv1 7) (concat (_ bv0 1) ?x72))) (_ bv0 1)))))
 (let (($x4661 (not (bvsle (_ bv0 6) (bvadd (_ bv63 6) ?x72)))))
 (let (($x9432 (= $x189 (or $x57 $x4661 $x10446))))
 (let (($x5360 (forall ((w (_ BitVec 256)) )(let ((?x7723 (storage_s x_0 w_1 0 w)))
 (let ((?x2688 (storage_s x_0 w_1 1 w)))
 (= ?x2688 ?x7723))))
 ))
 (let (($x9800 (forall ((n (_ BitVec 6)) )(let ((?x8988 (stack_s x_0 w_1 0 n)))
 (let ((?x6502 (stack_s x_0 w_1 1 n)))
 (let (($x7244 (= ?x6502 ?x8988)))
 (let ((?x72 (sc_s 0)))
 (let ((?x10160 (bvadd (_ bv63 6) ?x72)))
 (let (($x6571 (bvsle ?x10160 n)))
 (or $x6571 $x7244))))))))
 ))
 (let ((?x154 (sc_s 1)))
 (let (($x10536 (= ?x154 (bvadd (_ bv1 6) ?x72))))
 (let ((?x940 (used_gas_s x_0 w_1 1)))
 (let (($x9023 (= ?x940 (+ 3 ?x5968))))
 (let ((?x10160 (bvadd (_ bv63 6) ?x72)))
 (let ((?x3779 (stack_s x_0 w_1 0 ?x10160)))
 (let (($x3555 (= (stack_s x_0 w_1 1 ?x10160) ?x3779)))
 (let ((?x11262 (bvadd (_ bv63 6) ?x154)))
 (let ((?x5047 (stack_s x_0 w_1 1 ?x11262)))
 (let (($x4719 (= ?x5047 ?x3779)))
 (let (($x1162 (forall ((w (_ BitVec 256)) )(let ((?x7723 (storage_s x_0 w_1 0 w)))
 (= ?x7723 (_ bv0 256))))
 ))
 (let (($x2226 (= ?x5968 0)))
 (let (($x3095 (not $x57)))
 (let (($x3537 (= (stack_s x_0 w_1 0 (_ bv0 6)) x_0)))
 (let (($x8685 (= ?x72 (_ bv1 6))))
 (and $x8685 $x3537 $x3095 $x2226 $x1162 $x4719 $x3555 $x9023 $x10536 $x9800 $x5360 $x9432 (= (stack_s x_0 w_1 2 ?x154) w_1) $x2407 $x9548 $x8775 $x3481 $x7427 (= ?x2630 (bvadd ?x976 (stack_s x_0 w_1 2 (bvadd (_ bv62 6) ?x218)))) $x108 $x9977 $x6984 $x871 $x3345 (= ?x1679 ?x10805) (= ?x2806 ?x2630) $x3868 $x8046 $x7470 $x2891 $x11446 (= ?x6316 (+ 2 ?x7031)) $x9540 $x142 $x1048 $x1632 (= (stack_t x_0 w_1 1 ?x63) w_1) $x2091 $x934 $x10423 $x9611 $x5562 (= ?x7609 (bvadd ?x6423 (stack_t x_0 w_1 1 (bvadd (_ bv62 6) ?x8347)))) $x7652 $x7451 $x10308 $x7073 $x3822 $x73 $x3478 $x58 $x10163 $x9028 (not (and $x6794 $x10523 $x6936 $x8842))))))))))))))))))))))))))))))))))))))))))))))))))))))))))))))))))))))))))))))))))))))))))))))))))))))
 )
(check-sat)
(get-proof)
